% Auto-generated by scripts/generate_dzn.py
% problem_type   = regex
% instance       = regex_43
% source_json    = instances_json/2_high_blowup/regex_43.json
% blowup         = 29.0
% representation = NFA

mode = 1;

var_count = 27;
Q = 13;
S = 2;
q0 = 1;
F = {13};
d_dfa = array2d(1..13, 1..2, [
  0, 0,
  0, 0,
  0, 0,
  0, 0,
  0, 0,
  0, 0,
  0, 0,
  0, 0,
  0, 0,
  0, 0,
  0, 0,
  0, 0,
  0, 0
]);
d_nfa = array2d(1..13, 1..2, [
  {1}, {1, 2},
  {3}, {},
  {4}, {4},
  {5}, {5},
  {6}, {6},
  {7}, {7},
  {8}, {8},
  {9}, {9},
  {10}, {10},
  {11}, {11},
  {12}, {12},
  {13}, {13},
  {}, {}
]);
